1 -1 -2 0
1 -1 3 0
1 1 4 0
1 1 -5 0
1 1 -6 0
1 -2 -7 0
1 2 3 0
1 2 -8 0
1 2 -1 0
1 -2 4 0
1 2 6 0
1 9 -10 0
1 9 11 0
1 9 -12 0
1 9 -3 0
1 9 8 0
1 9 13 0
1 -9 14 0
1 -9 15 0
1 9 -4 0
1 9 -6 0
1 -12 -10 0
1 12 11 0
1 -12 16 0
1 -12 -3 0
1 12 -8 0
1 -12 -13 0
1 -12 14 0
1 -12 9 0
1 -12 -4 0
1 -12 6 0
1 -8 17 0
1 8 -18 0
1 -8 -19 0
1 -8 12 0
1 8 -2 0
1 8 -20 0
1 8 -21 0
1 -8 22 0
1 -8 23 0
1 -8 -9 0
1 8 1 0
1 -8 -6 0
1 6 -24 0
1 6 -19 0
1 6 12 0
1 -6 2 0
1 -6 8 0
1 -6 -21 0
1 -6 22 0
1 6 -23 0
1 6 -9 0
1 -6 1 0
1 3 17 0
1 -3 -25 0
1 3 -26 0
1 -3 12 0
1 3 2 0
1 3 -21 0
1 -3 27 0
1 3 -28 0
1 3 -1 0
1 -3 -4 0
1 4 -17 0
1 4 -12 0
1 4 2 0
1 4 -3 0
1 4 -21 0
1 4 -27 0
1 -4 -28 0
1 -4 9 0
1 4 1 0
1 -4 29 0
1 -23 -10 0
1 -23 -11 0
1 23 -19 0
1 -23 8 0
1 23 -13 0
1 -23 14 0
1 -23 -28 0
1 -23 -6 0
1 19 10 0
1 19 11 0
1 -19 26 0
1 -19 8 0
1 -19 13 0
1 -19 -14 0
1 19 23 0
1 19 6 0
1 22 10 0
1 -22 11 0
1 22 -18 0
1 22 -30 0
1 22 8 0
1 22 13 0
1 -22 14 0
1 -22 31 0
1 -22 -27 0
1 22 32 0
1 22 -6 0
1 -18 -10 0
1 18 11 0
1 -18 -30 0
1 -18 25 0
1 18 33 0
1 18 -8 0
1 -18 -13 0
1 18 14 0
1 18 -22 0
1 -18 31 0
1 -18 -32 0
1 18 -6 0
1 14 34 0
1 -14 -35 0
1 -14 11 0
1 -14 -19 0
1 -14 -12 0
1 14 -36 0
1 14 -37 0
1 14 -38 0
1 14 39 0
1 -14 -22 0
1 14 23 0
1 -14 9 0
1 14 40 0
1 11 -34 0
1 11 -35 0
1 -11 -41 0
1 -11 -19 0
1 11 -12 0
1 -11 36 0
1 -11 37 0
1 11 -38 0
1 11 14 0
1 -11 22 0
1 11 23 0
1 11 -9 0
1 -11 -40 0
1 13 -10 0
1 13 -42 0
1 -13 -17 0
1 13 -18 0
1 13 -19 0
1 -13 -12 0
1 -13 43 0
1 -13 -44 0
1 -13 -21 0
1 -13 -22 0
1 -13 -23 0
1 13 -9 0
1 -13 -40 0
1 10 -42 0
1 -10 -45 0
1 -10 18 0
1 10 -19 0
1 -10 12 0
1 -10 36 0
1 -10 43 0
1 10 21 0
1 -10 -22 0
1 10 23 0
1 10 -9 0
1 -10 -40 0
1 38 35 0
1 -38 -11 0
1 -38 30 0
1 -38 -33 0
1 38 14 0
1 38 21 0
1 38 -32 0
1 35 -11 0
1 35 17 0
1 35 30 0
1 -35 -33 0
1 35 38 0
1 35 -31 0
1 -35 -32 0
1 -37 -34 0
1 37 -11 0
1 -37 30 0
1 -37 33 0
1 37 43 0
1 -37 14 0
1 37 -31 0
1 -34 42 0
1 34 11 0
1 34 -30 0
1 -34 -33 0
1 34 37 0
1 34 -14 0
1 34 31 0
1 -34 -32 0
1 32 34 0
1 -32 35 0
1 -32 -18 0
1 -32 33 0
1 -32 -46 0
1 -32 37 0
1 -32 -38 0
1 -32 22 0
1 32 47 0
1 32 48 0
1 -33 -35 0
1 -33 -18 0
1 33 49 0
1 33 46 0
1 -33 37 0
1 33 38 0
1 -33 -22 0
1 33 -32 0
1 31 34 0
1 -31 35 0
1 -31 18 0
1 -31 -30 0
1 -31 -46 0
1 31 50 0
1 31 36 0
1 -31 -37 0
1 31 38 0
1 31 22 0
1 31 51 0
1 -31 -48 0
1 -31 -52 0
1 -31 40 0
1 30 -34 0
1 30 35 0
1 -30 18 0
1 -30 53 0
1 -30 -46 0
1 -30 -50 0
1 30 36 0
1 30 -37 0
1 30 -38 0
1 30 22 0
1 -30 -48 0
1 30 40 0
1 -5 -54 0
1 5 -55 0
1 -5 7 0
1 5 -56 0
1 -5 -57 0
1 -5 -1 0
1 7 -54 0
1 7 -55 0
1 7 -56 0
1 -7 -57 0
1 7 5 0
1 15 54 0
1 15 -55 0
1 -15 58 0
1 15 16 0
1 -15 -56 0
1 -15 -57 0
1 -15 -59 0
1 -15 60 0
1 -15 -9 0
1 -16 -54 0
1 16 -55 0
1 16 -58 0
1 -16 61 0
1 -16 12 0
1 16 56 0
1 -16 57 0
1 16 59 0
1 -16 -60 0
1 -16 -15 0
1 -55 25 0
1 -55 -62 0
1 -55 -26 0
1 -55 7 0
1 55 -57 0
1 55 -27 0
1 -55 28 0
1 55 -5 0
1 -57 55 0
1 57 25 0
1 57 -26 0
1 -57 -16 0
1 -57 7 0
1 57 63 0
1 -57 -27 0
1 57 -15 0
1 -57 -5 0
1 -54 -64 0
1 -54 7 0
1 -54 56 0
1 54 15 0
1 -54 -5 0
1 -56 54 0
1 56 -16 0
1 56 7 0
1 -56 65 0
1 -56 -15 0
1 -56 -5 0
1 -28 55 0
1 -28 -58 0
1 -28 -26 0
1 28 -61 0
1 28 57 0
1 28 60 0
1 28 23 0
1 -28 4 0
1 26 -55 0
1 -26 58 0
1 26 19 0
1 26 -61 0
1 -26 59 0
1 26 60 0
1 26 4 0
1 -27 55 0
1 27 25 0
1 -27 61 0
1 -27 66 0
1 -27 67 0
1 -27 3 0
1 -27 57 0
1 -27 59 0
1 27 -22 0
1 27 -60 0
1 -27 68 0
1 -27 -69 0
1 27 4 0
1 -25 60 0
1 -25 55 0
1 -25 18 0
1 25 -58 0
1 25 61 0
1 -25 66 0
1 25 67 0
1 -25 3 0
1 -25 57 0
1 25 -59 0
1 -25 27 0
1 25 -68 0
1 -25 69 0
1 25 4 0
1 -61 -70 0
1 -61 60 0
1 -61 -42 0
1 61 17 0
1 61 25 0
1 61 -26 0
1 61 -71 0
1 61 -16 0
1 -61 72 0
1 -61 -43 0
1 -61 -21 0
1 -61 -27 0
1 -61 -28 0
1 61 15 0
1 -60 70 0
1 60 -42 0
1 -60 -17 0
1 60 -25 0
1 -60 26 0
1 60 61 0
1 -60 16 0
1 -60 -72 0
1 60 43 0
1 60 21 0
1 -60 27 0
1 60 -73 0
1 60 -15 0
1 58 -70 0
1 58 74 0
1 58 26 0
1 -58 16 0
1 58 -72 0
1 58 59 0
1 58 -27 0
1 58 28 0
1 59 -70 0
1 -59 25 0
1 -59 -58 0
1 59 -26 0
1 -59 -16 0
1 -59 72 0
1 -59 -27 0
1 59 75 0
1 -59 -28 0
1 -59 -15 0
1 -21 10 0
1 -21 -17 0
1 -21 61 0
1 21 -66 0
1 21 -67 0
1 -21 -3 0
1 21 8 0
1 -21 13 0
1 21 38 0
1 21 60 0
1 21 68 0
1 21 -4 0
1 21 -6 0
1 -17 10 0
1 17 35 0
1 -17 61 0
1 17 -66 0
1 17 -67 0
1 17 -3 0
1 -17 -8 0
1 -17 -13 0
1 17 -60 0
1 17 68 0
1 -17 69 0
1 17 4 0
1 -43 -24 0
1 43 10 0
1 -43 42 0
1 -43 -61 0
1 43 67 0
1 -43 -76 0
1 43 -13 0
1 43 37 0
1 -43 60 0
1 -43 -69 0
1 43 -29 0
1 -42 24 0
1 -42 34 0
1 -42 -10 0
1 -42 66 0
1 42 67 0
1 -42 -76 0
1 42 20 0
1 42 -13 0
1 42 -43 0
1 -42 60 0
1 -42 68 0
1 42 69 0
1 42 29 0
1 -67 17 0
1 -67 25 0
1 67 -77 0
1 67 -50 0
1 67 78 0
1 -67 -36 0
1 -67 -43 0
1 -67 -21 0
1 -67 -27 0
1 -67 -69 0
1 67 79 0
1 -67 -52 0
1 -67 40 0
1 69 -42 0
1 69 -17 0
1 69 25 0
1 69 -67 0
1 69 -77 0
1 69 -36 0
1 69 80 0
1 69 43 0
1 69 21 0
1 -69 -27 0
1 -69 79 0
1 69 52 0
1 -66 -70 0
1 -66 -42 0
1 -66 -17 0
1 -66 25 0
1 66 81 0
1 66 82 0
1 66 -72 0
1 66 43 0
1 -66 -21 0
1 -66 27 0
1 66 -68 0
1 66 -79 0
1 66 83 0
1 -68 42 0
1 68 17 0
1 68 25 0
1 68 -66 0
1 -68 -77 0
1 68 82 0
1 -68 43 0
1 -68 -21 0
1 -68 -27 0
1 68 -84 0
1 -68 83 0
1 -36 24 0
1 -36 -10 0
1 -36 11 0
1 36 30 0
1 -36 -67 0
1 36 -76 0
1 -36 -72 0
1 36 13 0
1 -36 14 0
1 36 -31 0
1 36 69 0
1 -36 40 0
1 40 -70 0
1 40 -10 0
1 -40 11 0
1 40 67 0
1 40 -76 0
1 -40 -36 0
1 40 20 0
1 40 -13 0
1 -40 -14 0
1 40 69 0
1 -40 29 0
1 -50 45 0
1 50 41 0
1 -50 -30 0
1 50 67 0
1 50 82 0
1 -50 -76 0
1 -50 20 0
1 -50 31 0
1 50 69 0
1 -50 52 0
1 52 -24 0
1 52 41 0
1 -52 -30 0
1 52 67 0
1 -52 76 0
1 52 20 0
1 52 44 0
1 -52 39 0
1 52 -31 0
1 -52 -29 0
1 52 69 0
1 -52 -83 0
1 20 24 0
1 -20 42 0
1 20 85 0
1 20 -86 0
1 -20 -46 0
1 -20 -50 0
1 -20 -36 0
1 -20 8 0
1 20 -43 0
1 -20 -87 0
1 20 88 0
1 -20 -48 0
1 -20 52 0
1 -20 -40 0
1 24 -42 0
1 24 85 0
1 -24 86 0
1 -24 -50 0
1 -24 36 0
1 -24 -43 0
1 -24 -6 0
1 -24 -87 0
1 -24 88 0
1 24 48 0
1 -24 52 0
1 -24 40 0
1 -76 42 0
1 76 -89 0
1 -76 -77 0
1 -76 -50 0
1 76 -3 0
1 76 36 0
1 -76 -43 0
1 76 -87 0
1 76 -90 0
1 76 79 0
1 76 -52 0
1 -76 -40 0
1 -29 42 0
1 29 -85 0
1 -29 -89 0
1 -29 77 0
1 29 50 0
1 29 76 0
1 -29 -36 0
1 -29 43 0
1 -29 -4 0
1 29 87 0
1 29 -90 0
1 -29 79 0
1 -46 -45 0
1 -46 -30 0
1 46 41 0
1 -46 33 0
1 46 -77 0
1 -46 20 0
1 -46 44 0
1 -46 39 0
1 46 -31 0
1 46 -32 0
1 46 48 0
1 -48 24 0
1 48 -45 0
1 -48 30 0
1 48 33 0
1 -48 -46 0
1 48 -20 0
1 48 44 0
1 48 39 0
1 -48 -31 0
1 48 -32 0
1 48 -79 0
1 86 24 0
1 86 -45 0
1 86 -41 0
1 -86 -53 0
1 86 88 0
1 86 -49 0
1 86 -44 0
1 86 39 0
1 -86 51 0
1 -86 47 0
1 88 -24 0
1 88 41 0
1 -88 -53 0
1 88 -49 0
1 -88 86 0
1 -88 20 0
1 88 -44 0
1 -88 -51 0
1 88 -47 0
1 -88 90 0
1 -39 -41 0
1 -39 -91 0
1 -39 -92 0
1 39 86 0
1 39 -46 0
1 -39 -50 0
1 39 -14 0
1 39 -93 0
1 39 -94 0
1 -39 -88 0
1 -39 48 0
1 -39 52 0
1 -41 -11 0
1 -41 91 0
1 -41 92 0
1 41 -86 0
1 41 -46 0
1 41 50 0
1 41 -93 0
1 -41 39 0
1 -41 94 0
1 -41 -88 0
1 41 48 0
1 41 -52 0
1 44 -85 0
1 -44 86 0
1 -44 -46 0
1 -44 -50 0
1 44 13 0
1 44 95 0
1 44 87 0
1 44 48 0
1 -44 52 0
1 -45 85 0
1 45 -46 0
1 45 50 0
1 -45 -44 0
1 -45 95 0
1 45 87 0
1 -45 88 0
1 -45 -48 0
1 45 52 0
1 -92 -41 0
1 -92 53 0
1 92 49 0
1 92 -85 0
1 92 -51 0
1 -92 -39 0
1 -92 -94 0
1 -92 -47 0
1 94 -41 0
1 94 -92 0
1 94 -49 0
1 -94 -39 0
1 94 51 0
1 94 47 0
1 91 -41 0
1 91 -53 0
1 -91 -49 0
1 91 -93 0
1 91 39 0
1 -91 -47 0
1 93 -41 0
1 -93 -91 0
1 -93 -53 0
1 -93 -49 0
1 93 39 0
1 -93 95 0
1 93 -51 0
1 93 -47 0
1 47 -91 0
1 47 92 0
1 47 -49 0
1 47 86 0
1 47 94 0
1 47 32 0
1 -47 -88 0
1 -49 -91 0
1 -49 -33 0
1 49 -92 0
1 49 86 0
1 49 94 0
1 -49 -88 0
1 49 47 0
1 -51 -91 0
1 -51 53 0
1 51 92 0
1 51 86 0
1 -51 -93 0
1 -51 31 0
1 -51 -94 0
1 -51 -88 0
1 -53 30 0
1 53 91 0
1 53 92 0
1 53 -86 0
1 -53 -51 0
1 -53 -93 0
1 -53 -94 0
1 -53 -88 0
1 72 -70 0
1 72 64 0
1 72 -62 0
1 72 58 0
1 72 -61 0
1 72 -66 0
1 72 36 0
1 72 -65 0
1 72 -63 0
1 -72 -59 0
1 -72 60 0
1 -72 68 0
1 -70 -64 0
1 -70 -62 0
1 70 -61 0
1 -70 -66 0
1 -70 65 0
1 70 63 0
1 -70 59 0
1 70 60 0
1 70 -68 0
1 -70 40 0
1 -82 -64 0
1 -82 -62 0
1 -82 -71 0
1 82 -66 0
1 -82 -50 0
1 -82 65 0
1 -82 -63 0
1 -82 -75 0
1 -82 -73 0
1 -82 -68 0
1 82 83 0
1 -83 64 0
1 -83 62 0
1 83 -74 0
1 83 71 0
1 83 -66 0
1 83 82 0
1 -83 65 0
1 -83 -75 0
1 83 -73 0
1 83 68 0
1 -83 -52 0
1 -62 -70 0
1 -62 -55 0
1 -62 89 0
1 62 -77 0
1 -62 -82 0
1 62 72 0
1 -62 -63 0
1 -62 90 0
1 62 -79 0
1 -62 83 0
1 -63 62 0
1 63 89 0
1 -63 77 0
1 63 82 0
1 -63 -72 0
1 -63 -57 0
1 63 90 0
1 63 -79 0
1 63 -83 0
1 -64 -70 0
1 -64 -82 0
1 -64 -72 0
1 64 65 0
1 64 83 0
1 65 -70 0
1 -65 64 0
1 65 -82 0
1 -65 -72 0
1 -65 -56 0
1 -65 -83 0
1 -77 -62 0
1 77 -74 0
1 77 -71 0
1 -77 46 0
1 -77 67 0
1 77 -76 0
1 -77 63 0
1 77 -75 0
1 77 -73 0
1 77 -68 0
1 77 69 0
1 -77 -79 0
1 77 -29 0
1 -79 74 0
1 79 -71 0
1 79 -69 0
1 -79 -67 0
1 79 77 0
1 79 76 0
1 -79 63 0
1 -79 -75 0
1 -79 73 0
1 -79 -68 0
1 -79 -48 0
1 -79 29 0
1 89 -62 0
1 89 84 0
1 -89 74 0
1 89 -71 0
1 -89 -86 0
1 -89 81 0
1 89 78 0
1 89 -76 0
1 89 63 0
1 89 73 0
1 89 90 0
1 89 80 0
1 90 62 0
1 -90 -74 0
1 90 -71 0
1 -90 -89 0
1 90 78 0
1 90 76 0
1 -90 -63 0
1 -90 -75 0
1 -90 -73 0
1 90 -88 0
1 90 84 0
1 71 -73 0
1 71 -61 0
1 -71 -85 0
1 71 -89 0
1 -71 77 0
1 -71 -82 0
1 71 95 0
1 -71 -87 0
1 71 90 0
1 -71 -79 0
1 -71 83 0
1 -73 -85 0
1 73 71 0
1 -73 89 0
1 73 -77 0
1 -73 -82 0
1 -73 -60 0
1 -73 87 0
1 73 90 0
1 73 -79 0
1 73 83 0
1 -74 -58 0
1 74 89 0
1 74 -77 0
1 74 -82 0
1 74 75 0
1 74 83 0
1 75 74 0
1 -75 89 0
1 -75 -77 0
1 75 -82 0
1 75 -59 0
1 -75 90 0
1 -75 79 0
1 -75 -83 0
1 -85 24 0
1 -85 45 0
1 85 73 0
1 -85 -92 0
1 -85 -71 0
1 -85 78 0
1 -85 -76 0
1 85 -20 0
1 85 44 0
1 -85 87 0
1 -85 84 0
1 85 -80 0
1 -85 29 0
1 87 -24 0
1 87 45 0
1 -87 -85 0
1 87 71 0
1 -87 78 0
1 87 -76 0
1 -87 -20 0
1 87 -44 0
1 -87 94 0
1 -87 73 0
1 -87 84 0
1 87 80 0
1 87 -29 0
1 96 -45 0
1 96 91 0
1 -96 71 0
1 96 81 0
1 -96 78 0
1 -96 44 0
1 -96 -95 0
1 -96 -73 0
1 96 -84 0
1 -96 -80 0
1 -95 -45 0
1 95 -96 0
1 95 71 0
1 -95 81 0
1 -95 78 0
1 -95 93 0
1 -95 80 0
1 78 -96 0
1 -78 -85 0
1 78 89 0
1 -78 67 0
1 78 95 0
1 78 -87 0
1 78 -90 0
1 -78 -80 0
1 80 96 0
1 -80 -85 0
1 -80 78 0
1 80 95 0
1 -80 87 0
1 80 90 0
1 80 -69 0
1 -81 -96 0
1 81 -84 0
1 81 85 0
1 -81 -66 0
1 81 89 0
1 -81 -95 0
1 81 87 0
1 -81 -90 0
1 -84 -96 0
1 84 -85 0
1 84 89 0
1 84 -95 0
1 84 -87 0
1 84 -68 0
1 -84 -90 0
